\ This file has been generated by DOcplex
\ ENCODING=ISO-8859-1
\Problem name: Market Sharing Problem

Minimize
 obj: s_plus_0 + s_plus_1 + s_minus_0 + s_minus_1
Subject To
 demand_constraint_0: 40 x_0 + 15 x_1 + 72 x_2 + 22 x_3 + 43 x_4 + 82 x_5
                      + 75 x_6 + 7 x_7 + 34 x_8 + 49 x_9 + s_plus_0 - s_minus_0
                       = 219
 demand_constraint_1: 95 x_0 + 75 x_1 + 85 x_2 + 47 x_3 + 63 x_4 + 31 x_5
                      + 90 x_6 + 20 x_7 + 37 x_8 + 39 x_9 + s_plus_1 - s_minus_1
                       = 291

Bounds
 0 <= x_0 <= 1
 0 <= x_1 <= 1
 0 <= x_2 <= 1
 0 <= x_3 <= 1
 0 <= x_4 <= 1
 0 <= x_5 <= 1
 0 <= x_6 <= 1
 0 <= x_7 <= 1
 0 <= x_8 <= 1
 0 <= x_9 <= 1
       s_plus_0 <= 439
       s_plus_1 <= 582
       s_minus_0 <= 439
       s_minus_1 <= 582

Binaries
 x_0 x_1 x_2 x_3 x_4 x_5 x_6 x_7 x_8 x_9

Generals
 s_plus_0 s_plus_1 s_minus_0 s_minus_1
End
